
Welcome to IBM(R) ILOG(R) CPLEX(R) Interactive Optimizer 22.1.1.0
  with Simplex, Mixed Integer & Barrier Optimizers
5725-A06 5725-A29 5724-Y48 5724-Y49 5724-Y54 5724-Y55 5655-Y21
Copyright IBM Corp. 1988, 2022.  All Rights Reserved.

Type 'help' for a list of available commands.
Type 'help' followed by a command name for more
information on commands.

CPLEX> Selected objective sense:  MINIMIZE
Selected objective  name:  00000000
Selected RHS        name:  RHS1
Selected bound      name:  BOUND
Problem 'ee.mps' read.
Read time = 0.03 sec. (3.14 ticks)
CPLEX> New value for time limit in seconds: 7200
CPLEX> New value for parallel optimization mode: -1
CPLEX> New value for default parallel thread count: 40
CPLEX> New value for mixed integer optimality gap tolerance: 1e-13
CPLEX> Version identifier: 22.1.1.0 | 2022-11-28 | 9160aff4d
CPXPARAM_Threads                                 40
CPXPARAM_Parallel                                -1
CPXPARAM_TimeLimit                               7200
CPXPARAM_MIP_Tolerances_MIPGap                   1e-13
Found incumbent of value 0.000000 after 0.00 sec. (0.31 ticks)
Tried aggregator 2 times.
MIP Presolve eliminated 182 rows and 2745 columns.
MIP Presolve modified 5862 coefficients.
Aggregator did 713 substitutions.
Reduced MIP has 3624 rows, 7744 columns, and 28666 nonzeros.
Reduced MIP has 7744 binaries, 0 generals, 0 SOSs, and 0 indicators.
Presolve time = 0.07 sec. (68.80 ticks)
Probing time = 0.03 sec. (5.31 ticks)
Tried aggregator 1 time.
Detecting symmetries...
Reduced MIP has 3624 rows, 7744 columns, and 28666 nonzeros.
Reduced MIP has 7744 binaries, 0 generals, 0 SOSs, and 0 indicators.
Presolve time = 0.02 sec. (21.96 ticks)
Probing time = 0.02 sec. (5.09 ticks)
Clique table members: 18557.
MIP emphasis: balance optimality and feasibility.
MIP search method: dynamic search.
Parallel mode: opportunistic, using up to 40 threads.
Root relaxation solution time = 0.15 sec. (117.98 ticks)

        Nodes                                         Cuts/
   Node  Left     Objective  IInf  Best Integer    Best Bound    ItCnt     Gap

*     0+    0                            0.0000  -1.31000e+13              --- 
*     0+    0                      -5.38000e+12  -1.31000e+13           143.49%
      0     0  -1.30900e+13   116  -5.38000e+12  -1.30900e+13     3001  143.31%
*     0+    0                      -1.30900e+13  -1.30900e+13             0.00%
      0     0  -1.30900e+13   180  -1.30900e+13      Cuts: 88     3548    0.00%
*     0+    0                      -1.30900e+13  -1.30900e+13             0.00%
      0     0  -1.30900e+13   252  -1.30900e+13     Cuts: 153     4171    0.00%
*     0+    0                      -1.30900e+13  -1.30900e+13             0.00%
*     0+    0                      -1.30900e+13  -1.30900e+13             0.00%
*     0+    0                      -1.30900e+13  -1.30900e+13             0.00%
*     0+    0                      -1.30900e+13  -1.30900e+13             0.00%
      0    37    infeasible        -1.30900e+13  -1.30900e+13    15077    0.00%
Elapsed time = 2.61 sec. (1219.59 ticks, tree = 0.02 MB, solutions = 17)
    103    73  -1.30900e+13   160  -1.30900e+13  -1.30900e+13    35363    0.00%
    310    71  -1.30900e+13   125  -1.30900e+13  -1.30900e+13    47513    0.00%
    665    77        cutoff        -1.30900e+13  -1.30900e+13    50651    0.00%
   1094   137  -1.30900e+13   103  -1.30900e+13  -1.30900e+13    97436    0.00%
   1461    69        cutoff        -1.30900e+13  -1.30900e+13   221306    0.00%
   1915    32        cutoff        -1.30900e+13  -1.30900e+13   326271    0.00%
   2352    49        cutoff        -1.30900e+13  -1.30900e+13   302353    0.00%
   2814    13        cutoff        -1.30900e+13  -1.30900e+13   278866    0.00%
   3484    36  -1.30900e+13    98  -1.30900e+13  -1.30900e+13   327132    0.00%
   5654    40        cutoff        -1.30900e+13  -1.30900e+13   311912    0.00%
Elapsed time = 8.36 sec. (4324.28 ticks, tree = 0.75 MB, solutions = 18)

GUB cover cuts applied:  25
Clique cuts applied:  28
Cover cuts applied:  563
Mixed integer rounding cuts applied:  29
Zero-half cuts applied:  27
Lift and project cuts applied:  7
Gomory fractional cuts applied:  19

Root node processing (before b&c):
  Real time             =    1.36 sec. (1209.59 ticks)
Parallel b&c, 40 threads:
  Real time             =    7.22 sec. (3585.64 ticks)
  Sync time (average)   =    3.32 sec.
  Wait time (average)   =    0.00 sec.
                          ------------
Total (root+branch&cut) =    8.58 sec. (4795.23 ticks)

Solution pool: 18 solutions saved.

MIP - Integer optimal solution:  Objective = -1.3089998789e+13
Solution time =    8.73 sec.  Iterations = 369273  Nodes = 5998
Deterministic time = 4795.26 ticks  (549.33 ticks/sec)

CPLEX> Solution 'p19' written to file 'ee.sol'.
CPLEX> 